data/benchmarks/bayes/90-14-9-q.cnf
p cnf 924 821
c weights 0.0402272 0.9597728 1 1 1 1 1 1 1 1 1 1 1 1 1 1 1 1 1 1 1 1 1 1 1 1 1 1 1 1 1 1 1 1 1 1 1 1 1 1 1 1 1 1 1 1 1 1 1 1 1 1 1 1 1 1 1 1 1 1 1 1 1 1 1 1 1 1 1 1 1 1 1 1 1 1 1 1 1 1 1 1 1 1 1 1 1 1 1 1 1 1 1 1 1 1 1 1 1 1 1 1 1 1 1 1 1 1 1 1 1 1 1 1 1 1 1 1 1 1 1 1 1 1 1 1 1 1 1 1 1 1 1 1 1 1 1 1 1 1 1 1 1 1 1 1 1 1 1 1 1 1 1 1 1 1 1 1 1 1 1 1 1 1 1 1 1 1 1 1 1 1 1 1 1 1 1 1 1 1 1 1 1 1 1 1 1 1 1 1 1 1 1 1 1 1 1 1 1 1 1 1 1 1 1 1 1 1 1 1 1 1 1 1 1 1 1 1 1 1 1 1 1 1 1 1 1 1 1 1 1 1 1 1 1 1 1 1 1 1 1 1 1 1 1 1 1 1 1 1 1 1 1 1 1 1 1 1 1 1 1 1 1 1 1 1 1 1 1 1 1 1 1 1 1 1 1 1 1 1 1 1 1 1 1 1 1 1 1 1 1 1 1 1 1 1 1 1 1 1 1 1 1 1 1 1 1 1 1 1 1 1 1 1 1 1 1 1 1 1 1 1 1 1 1 1 1 1 1 1 1 1 1 1 1 1 1 1 1 1 1 1 1 1 1 1 1 1 1 1 1 1 1 1 1 1 1 1 1 1 1 1 1 1 1 1 1 1 1 1 1 1 1 1 1 1 1 1 1 1 1 1 1 1 1 1 1 1 1 1 1 1 0.5 0.5 0.5 0.5 0.5 0.5 0.5 0.5 0.5 0.5 0.5 0.5 0.5 0.5 0.5 0.5 0.5 0.5 0.5 0.5 0.5 0.5 0.5 0.5 0.5 0.5 0.5 0.5 0.5 0.5 0.5 0.5 0.5 0.5 0.5 0.5 0.5 0.5 0.5 0.5 0.5 0.5 0.5 0.5 0.5 0.5 0.5 0.5 0.552623 0.447377 0.305476 0.6945239999999999 0.5 0.5 0.5 0.5 0.5 0.5 0.5 0.5 0.5 0.5 0.5 0.5 0.5 0.5 0.5 0.5 0.5 0.5 0.5 0.5 0.5 0.5 0.5 0.5 0.5 0.5 0.5 0.5 0.5 0.5 0.5 0.5 0.5 0.5 0.5 0.5 0.5 0.5 0.5 0.5 0.5 0.5 0.5 0.5 0.5 0.5 0.5 0.5 0.5 0.5 0.5 0.5 0.5 0.5 0.5 0.5 0.5 0.5 0.5 0.5 0.5 0.5 0.5 0.5 0.5 0.5 0.5 0.5 0.5 0.5 0.5 0.5 0.5 0.5 0.5 0.5 0.5 0.5 0.5 0.5 0.5 0.5 0.5 0.5 0.5 0.5 0.5 0.5 0.5 0.5 0.5 0.5 0.5 0.5 0.5 0.5 0.5 0.5 0.5 0.5 0.5 0.5 0.5 0.5 0.5 0.5 0.5 0.5 0.5 0.5 0.5 0.5 0.5 0.5 0.5 0.5 0.5 0.5 0.5 0.5 0.5 0.5 0.5 0.5 0.5 0.5 0.5 0.5 0.5 0.5 0.5 0.5 0.5 0.5 0.5 0.5 0.5 0.5 0.5 0.5 0.5 0.5 0.5 0.5 0.229514 0.770486 0.204779 0.795221 0.652085 0.347915 0.301737 0.6982630000000001 0.5 0.5 0.5 0.5 0.5 0.5 0.5 0.5 0.5 0.5 0.5 0.5 0.5 0.5 0.5 0.5 0.5 0.5 0.5 0.5 0.5 0.5 0.5 0.5 0.5 0.5 0.5 0.5 0.5 0.5 0.5 0.5 0.5 0.5 0.5 0.5 0.5 0.5 0.5 0.5 0.5 0.5 0.5 0.5 0.5 0.5 0.5 0.5 0.5 0.5 0.5 0.5 0.5 0.5 0.5 0.5 0.5 0.5 0.5 0.5 0.5 0.5 0.5 0.5 0.5 0.5 0.5 0.5 0.5 0.5 0.5 0.5 0.5 0.5 0.5 0.5 0.5 0.5 0.5 0.5 0.5 0.5 0.5 0.5 0.5 0.5 0.5 0.5 0.5 0.5 0.5 0.5 0.5 0.5 0.5 0.5 0.5 0.5 0.5 0.5 0.5 0.5 0.5 0.5 0.5 0.5 0.5 0.5 0.5 0.5 0.5 0.5 0.5 0.5 0.5 0.5 0.5 0.5 0.5 0.5 0.5 0.5 0.5 0.5 0.5 0.5 0.5 0.5 0.5 0.5 0.5 0.5 0.5 0.5 0.5 0.5 0.5 0.5 0.5 0.5 0.8926 0.10740000000000005 0.00542345 0.99457655 0.196794 0.803206 0.924715 0.07528500000000005 0.5 0.5 0.5 0.5 0.5 0.5 0.5 0.5 0.5 0.5 0.5 0.5 0.5 0.5 0.5 0.5 0.5 0.5 0.5 0.5 0.5 0.5 0.5 0.5 0.195393 0.804607 0.902077 0.09792299999999998 0.5 0.5 0.5 0.5 0.5 0.5 0.5 0.5 0.5 0.5 0.5 0.5 0.5 0.5 0.5 0.5 0.5 0.5 0.5 0.5 0.5 0.5 0.5 0.5 0.5 0.5 0.5 0.5 0.5 0.5 0.5 0.5 0.5 0.5 0.5 0.5 0.5 0.5 0.5 0.5 0.5 0.5 0.5 0.5 0.5 0.5 0.5 0.5 0.5 0.5 0.5 0.5 0.5 0.5 0.5 0.5 0.5 0.5 0.5 0.5 0.5 0.5 0.5 0.5 0.5 0.5 0.5 0.5 0.5 0.5 0.5 0.5 0.5 0.5 0.5 0.5 0.5 0.5 0.5 0.5 0.5 0.5 0.5 0.5 0.5 0.5 0.5 0.5 0.5 0.5 0.5 0.5 0.5 0.5 0.5 0.5 0.5 0.5 0.5 0.5 0.5 0.5 0.5 0.5 0.5 0.5 0.5 0.5 0.5 0.5 0.5 0.5 0.5 0.5 0.5 0.5 0.5 0.5 0.5 0.5 0.5 0.5 0.5 0.5 0.5 0.5 0.5 0.5 0.5 0.5 0.5 0.5 0.5 0.5 0.5 0.5 0.5 0.5 0.5 0.5 0.5 0.5 0.5 0.5 0.5 0.5 0.5 0.5 0.541279 0.45872100000000005 0.975817 0.024182999999999955 0.357564 0.642436 0.731202 0.268798 0.5 0.5 0.5 0.5 0.5 0.5 0.5 0.5 0.00415594 0.99584406 0.0246317 0.9753683 0.32439 0.67561 0.877637 0.122363 0.5 0.5 0.5 0.5 0.5 0.5 0.5 0.5 0.5 0.5 0.5 0.5 0.5 0.5 0.5 0.5 0.5 0.5 0.5 0.5 0.5 0.5 0.5 0.5 0.5 0.5 0.5 0.5 0.5 0.5 0.5 0.5 0.5 0.5 0.5 0.5 0.5 0.5 0.5 0.5 0.5 0.5 0.5 0.5 0.77051 0.22948999999999997 0.851983 0.14801699999999995 0.866601 0.13339900000000005 0.566512 0.433488 0.5 0.5 0.5 0.5 0.5 0.5 0.5 0.5 0.5 0.5 0.5 0.5 0.5 0.5 0.5 0.5 0.5 0.5 0.5 0.5 0.5 0.5 0.5 0.5 0.981377 0.018622999999999945 0.332528 0.6674720000000001 0.568928 0.431072 0.547819 0.45218100000000006 0.5 0.5 0.5 0.5 0.5 0.5 0.5 0.5 0.5 0.5 0.5 0.5 0.5 0.5 0.5 0.5 0.5 0.5 0.5 0.5 0.5 0.5 0.5 0.5 0.266701 0.7332989999999999 0.688314 0.311686 0.427763 0.572237 0.866878 0.13312199999999996 0.279941 0.720059 0.745175 0.25482499999999997 0.644092 0.355908 0.426079 0.573921 0.5 0.5 0.5 0.5 0.5 0.5 0.5 0.5 0.186945 0.813055 0.819966 0.18003400000000003 0.0438263 0.9561737 0.663492 0.33650800000000003 0.5 0.5 0.5 0.5 0.5 0.5 0.5 0.5 0.5 0.5 0.5 0.5 0.5 0.5 0.5 0.5 0.5 0.5 0.5 0.5 0.5 0.5 0.5 0.5 0.5 0.5 0.5 0.5 0.164986 0.835014 0.440367 0.559633 0.329481 0.670519 0.527664 0.472336 0.5 0.5 0.5 0.5 0.5 0.5 0.5 0.5 0.5 0.5 0.5 0.5 0.5 0.5 0.5 0.5 0.5 0.5 0.5 0.5 0.5 0.5 0.5 0.5 0.5 0.5 0.5 0.5 0.5 0.5 0.5 0.5 0.5 0.5 0.5 0.5 0.5 0.5 0.5 0.5 0.5 0.5 0.5 0.5 0.5 0.5 0.5 0.5 0.5 0.5 0.5 0.5 0.5 0.5 0.5 0.5 0.5 0.5 0.5 0.5 0.5 0.5 0.5 0.5 0.5 0.5 0.5 0.5 0.5 0.5 0.5 0.5 0.5 0.5 0.5 0.5 0.5 0.5 0.5 0.5 0.5 0.5 0.5 0.5 0.5 0.5 0.5 0.5 0.5 0.5 0.5 0.5 0.5 0.5 0.5 0.5 0.5 0.5 0.5 0.5 0.5 0.5 0.5 0.5 0.5 0.5 0.5 0.5 0.693463 0.30653699999999995 0.620953 0.379047 0.428041 0.571959 0.879081 0.120919 0.5 0.5 0.5 0.5 0.5 0.5 0.5 0.5 0.5 0.5 0.5 0.5 0.5 0.5 0.5 0.5 0.574864 0.42513599999999996 0.923793 0.07620700000000002 0.959857 0.04014300000000004 0.0904792 0.9095208 0.5 0.5 0.5 0.5 0.5 0.5 0.5 0.5 0.5 0.5 0.5 0.5 0.5 0.5 0.5 0.5 0.5 0.5 0.5 0.5 0.5 0.5 0.5 0.5 0.5 0.5 0.5 0.5 0.5 0.5 0.5 0.5 0.5 0.5 0.5 0.5 0.5 0.5 0.5 0.5 0.5 0.5 0.5 0.5 0.5 0.5 0.5 0.5 0.5 0.5 0.5 0.5 0.535124 0.46487599999999996 0.0884533 0.9115467 0.315028 0.684972 0.400181 0.599819 0.5 0.5 0.5 0.5 0.5 0.5 0.5 0.5 0.5 0.5 0.5 0.5 0.5 0.5 0.5 0.5 0.5 0.5 0.5 0.5 0.5 0.5 0.5 0.5 0.5 0.5 0.5 0.5 0.5 0.5 0.5 0.5 0.5 0.5 0.5 0.5 0.5 0.5 0.5 0.5 0.550889 0.44911100000000004 0.43359 0.5664100000000001 0.29616 0.70384 0.951071 0.048929 0.5 0.5 0.5 0.5 0.5 0.5 0.5 0.5 0.5 0.5 0.5 0.5 0.5 0.5 0.5 0.5 0.5 0.5 0.5 0.5 0.5 0.5 0.5 0.5 0.694398 0.30560200000000004 0.866454 0.13354600000000005 0.771524 0.228476 0.686618 0.31338200000000005 0.5 0.5 0.5 0.5 0.5 0.5 0.5 0.5 0.5 0.5 0.5 0.5 0.5 0.5 0.5 0.5 0.5 0.5 0.5 0.5 0.5 0.5 0.5 0.5 0.5 0.5 0.5 0.5 0.5 0.5 0.5 0.5 0.5 0.5 0.5 0.5 0.5 0.5 0.5 0.5 0.5 0.5 0.5 0.5 0.5 0.5 0.5 0.5 0.5 0.5 0.5 0.5 0.5 0.5 0.5 0.5 0.5 0.5 0.5 0.5 0.646466 0.353534 0.0598885 0.9401115 0.878854 0.12114599999999998 0.0727735 0.9272265 0.5 0.5 0.5 0.5 0.5 0.5 0.5 0.5 0.5 0.5 0.5 0.5 0.5 0.5 0.5 0.5 0.5 0.5 0.5 0.5 0.5 0.5 0.5 0.5 0.5 0.5 0.5 0.5 0.5 0.5 0.5 0.5 0.5 0.5 0.5 0.5 0.5 0.5 0.5 0.5 0.5 0.5 0.5 0.5 0.5 0.5 0.5 0.5 0.5 0.5 0.5 0.5 0.5 0.5 0.5 0.5 0.517663 0.482337 0.347448 0.652552 0.5 0.5 0.5 0.5 0.5 0.5 0.5 0.5 0.983599 0.016401 0.868973 0.131027 0.348584 0.651416 0.750424 0.24957600000000002 0.515663 0.484337 0.260111 0.739889 0.10336 0.89664 0.861396 0.13860399999999995 0.5 0.5 0.5 0.5 0.5 0.5 0.5 0.5 0.5 0.5 0.5 0.5 0.5 0.5 0.5 0.5 0.5 0.5 0.5 0.5 0.5 0.5 0.5 0.5 0.5 0.5 0.5 0.5 0.5 0.5 0.5 0.5 0.5 0.5 0.5 0.5 0.5 0.5 0.5 0.5 0.5 0.5 0.5 0.5 0.5 0.5 0.5 0.5 0.5 0.5 0.5 0.5 0.5 0.5 0.5 0.5 0.5 0.5 0.5 0.5 0.5 0.5 0.5 0.5 0.5 0.5 0.5 0.5 0.5 0.5 0.5 0.5 0.5 0.5 0.5 0.5 0.5 0.5 0.5 0.5 0.5 0.5 0.5 0.5 0.5 0.5 0.5 0.5 0.5 0.5 0.5 0.5 0.5 0.5 0.5 0.5 0.5 0.5 0.5 0.5 0.5 0.5 0.5 0.5 0.5 0.5 0.5 0.5 0.0894103 0.9105897000000001 0.159771 0.840229 0.620854 0.379146 0.504095 0.49590500000000004 0.5 0.5 0.5 0.5 0.5 0.5 0.5 0.5 0.5 0.5 0.5 0.5 0.5 0.5 0.5 0.5 0.5 0.5 0.5 0.5 0.5 0.5 0.5 0.5 0.5 0.5 0.5 0.5 0.5 0.5 0.5 0.5 0.5 0.5 0.5 0.5 0.5 0.5 0.5 0.5 0.5 0.5 0.5 0.5 0.5 0.5 0.5 0.5 0.5 0.5 0.5 0.5 0.5 0.5 0.5 0.5 0.5 0.5 0.5 0.5 0.5 0.5 0.5 0.5 0.5 0.5 0.5 0.5 0.5 0.5 0.5 0.5 0.216628 0.783372 0.0880429 0.9119571 0.5 0.5 0.5 0.5 0.5 0.5 0.5 0.5 0.549747 0.450253 0.34766 0.6523399999999999 0.753377 0.24662300000000004 0.880417 0.119583 0.5 0.5 0.5 0.5 0.5 0.5 0.5 0.5 0.448561 0.551439 0.137023 0.862977 0.518781 0.48121899999999995 0.256778 0.743222 0.5 0.5 0.5 0.5 0.5 0.5 0.5 0.5 0.5 0.5 0.5 0.5 0.5 0.5 0.5 0.5 0.5 0.5 0.5 0.5 0.5 0.5 0.5 0.5 0.5 0.5 0.5 0.5 0.5 0.5 0.5 0.5 0.5 0.5 0.5 0.5 0.5 0.5 0.5 0.5 0.5 0.5 0.5 0.5 0.5 0.5 0.5 0.5 0.5 0.5 0.5 0.5 0.5 0.5 0.5 0.5 0.5 0.5 0.5 0.5 0.5 0.5 0.5 0.5 0.5 0.5 0.5 0.5 0.5 0.5 0.5 0.5
-1 2 0
1 -2 0
-2 3 0
2 -3 0
-3 -4 0
3 4 0
-4 5 0
4 -5 0
-5 -6 0
5 6 0
-6 -7 0
6 7 0
-7 -8 0
7 8 0
-8 -9 0
8 9 0
-9 -10 0
9 10 0
-10 -11 0
10 11 0
-11 -12 0
11 12 0
-12 -13 0
12 13 0
-13 -221 14 0
-13 221 -14 0
13 -222 14 0
13 222 -14 0
-1 -15 0
1 15 0
-15 -2 -16 0
-15 2 -16 0
15 -2 16 0
15 2 -16 0
-16 -3 -17 0
-16 3 -17 0
16 -3 17 0
16 3 17 0
-17 -4 18 0
-17 4 -18 0
17 -4 18 0
17 4 -18 0
-18 -5 -19 0
-18 5 -19 0
18 -5 19 0
18 5 -19 0
-19 -6 20 0
-19 6 20 0
19 -6 -20 0
19 6 20 0
-20 -7 -21 0
-20 7 21 0
20 -7 -21 0
20 7 21 0
-21 -8 -22 0
-21 8 22 0
21 -8 22 0
21 8 22 0
-22 -9 -23 0
-22 9 23 0
22 -9 -23 0
22 9 23 0
-23 -10 24 0
-23 10 24 0
23 -10 24 0
23 10 -24 0
-24 -11 25 0
-24 11 25 0
24 -11 -25 0
24 11 -25 0
-25 -12 26 0
-25 12 26 0
25 -12 26 0
25 12 -26 0
-26 -13 -27 0
-26 13 27 0
26 -13 -27 0
26 13 27 0
-27 -14 -28 0
-27 14 -28 0
27 -14 28 0
27 14 -28 0
-15 -29 0
15 29 0
-29 -16 -30 0
-29 16 30 0
29 -16 -30 0
29 16 30 0
-30 -17 31 0
-30 17 -31 0
30 -17 31 0
30 17 -31 0
-31 -18 32 0
-31 18 -32 0
31 -18 -32 0
31 18 32 0
-32 -19 33 0
-32 19 -33 0
32 -19 33 0
32 19 33 0
-33 -20 -295 34 0
-33 -20 295 -34 0
-33 20 -296 34 0
-33 20 296 -34 0
33 -20 -297 34 0
33 -20 297 -34 0
33 20 -298 34 0
33 20 298 -34 0
-34 -21 35 0
-34 21 35 0
34 -21 -35 0
34 21 35 0
-35 -22 36 0
-35 22 36 0
35 -22 -36 0
35 22 -36 0
-36 -23 37 0
-36 23 -37 0
36 -23 37 0
36 23 37 0
-37 -24 38 0
-37 24 -38 0
37 -24 -38 0
37 24 -38 0
-38 -25 -39 0
-38 25 -39 0
38 -25 39 0
38 25 39 0
-39 -26 -40 0
-39 26 -40 0
39 -26 40 0
39 26 40 0
-40 -27 -41 0
-40 27 -41 0
40 -27 41 0
40 27 41 0
-41 -28 42 0
-41 28 42 0
41 -28 -42 0
41 28 42 0
-29 -43 0
29 43 0
-43 -30 -44 0
-43 30 44 0
43 -30 -44 0
43 30 -44 0
-44 -31 45 0
-44 31 -45 0
44 -31 -45 0
44 31 -45 0
-45 -32 46 0
-45 32 46 0
45 -32 -46 0
45 32 -46 0
-46 -33 47 0
-46 33 47 0
46 -33 -47 0
46 33 47 0
-47 -34 48 0
-47 34 48 0
47 -34 -48 0
47 34 48 0
-48 -35 -49 0
-48 35 -49 0
48 -35 49 0
48 35 -49 0
-49 -36 -50 0
-49 36 50 0
49 -36 50 0
49 36 50 0
-50 -37 -51 0
-50 37 -51 0
50 -37 51 0
50 37 -51 0
-51 -38 -52 0
-51 38 -52 0
51 -38 52 0
51 38 -52 0
-52 -39 -369 53 0
-52 -39 369 -53 0
-52 39 -370 53 0
-52 39 370 -53 0
52 -39 -371 53 0
52 -39 371 -53 0
52 39 -372 53 0
52 39 372 -53 0
-53 -40 54 0
-53 40 54 0
53 -40 54 0
53 40 -54 0
-54 -41 -55 0
-54 41 55 0
54 -41 55 0
54 41 55 0
-55 -42 -56 0
-55 42 56 0
55 -42 -56 0
55 42 -56 0
-43 -385 57 0
-43 385 -57 0
43 -386 57 0
43 386 -57 0
-57 -44 -58 0
-57 44 -58 0
57 -44 58 0
57 44 -58 0
-58 -45 -59 0
-58 45 -59 0
58 -45 -59 0
58 45 59 0
-59 -46 60 0
-59 46 -60 0
59 -46 -60 0
59 46 -60 0
-60 -47 -61 0
-60 47 -61 0
60 -47 -61 0
60 47 61 0
-61 -48 62 0
-61 48 62 0
61 -48 62 0
61 48 -62 0
-62 -49 63 0
-62 49 -63 0
62 -49 -63 0
62 49 63 0
-63 -50 64 0
-63 50 -64 0
63 -50 64 0
63 50 64 0
-64 -51 -65 0
-64 51 65 0
64 -51 65 0
64 51 65 0
-65 -52 -66 0
-65 52 66 0
65 -52 66 0
65 52 66 0
-66 -53 -67 0
-66 53 67 0
66 -53 67 0
66 53 67 0
-67 -54 -68 0
-67 54 68 0
67 -54 68 0
67 54 -68 0
-68 -55 69 0
-68 55 69 0
68 -55 -69 0
68 55 -69 0
-69 -56 70 0
-69 56 -70 0
69 -56 -70 0
69 56 -70 0
-57 71 0
57 -71 0
-71 -58 -72 0
-71 58 -72 0
71 -58 -72 0
71 58 72 0
-72 -59 73 0
-72 59 73 0
72 -59 -73 0
72 59 73 0
-73 -60 74 0
-73 60 -74 0
73 -60 -74 0
73 60 74 0
-74 -61 75 0
-74 61 -75 0
74 -61 75 0
74 61 75 0
-75 -62 -76 0
-75 62 76 0
75 -62 -76 0
75 62 76 0
-76 -63 -461 77 0
-76 -63 461 -77 0
-76 63 -462 77 0
-76 63 462 -77 0
76 -63 -463 77 0
76 -63 463 -77 0
76 63 -464 77 0
76 63 464 -77 0
-77 -64 -78 0
-77 64 78 0
77 -64 -78 0
77 64 -78 0
-78 -65 -469 79 0
-78 -65 469 -79 0
-78 65 -470 79 0
-78 65 470 -79 0
78 -65 -471 79 0
78 -65 471 -79 0
78 65 -472 79 0
78 65 472 -79 0
-79 -66 80 0
-79 66 -80 0
79 -66 80 0
79 66 80 0
-80 -67 -81 0
-80 67 81 0
80 -67 -81 0
80 67 -81 0
-81 -68 82 0
-81 68 -82 0
81 -68 82 0
81 68 82 0
-82 -69 83 0
-82 69 -83 0
82 -69 -83 0
82 69 -83 0
-83 -70 -84 0
-83 70 84 0
83 -70 84 0
83 70 84 0
-71 -85 0
71 85 0
-85 -72 -495 86 0
-85 -72 495 -86 0
-85 72 -496 86 0
-85 72 496 -86 0
85 -72 -497 86 0
85 -72 497 -86 0
85 72 -498 86 0
85 72 498 -86 0
-86 -73 -87 0
-86 73 87 0
86 -73 -87 0
86 73 -87 0
-87 -74 88 0
-87 74 -88 0
87 -74 -88 0
87 74 88 0
-88 -75 -89 0
-88 75 -89 0
88 -75 89 0
88 75 -89 0
-89 -76 -511 90 0
-89 -76 511 -90 0
-89 76 -512 90 0
-89 76 512 -90 0
89 -76 -513 90 0
89 -76 513 -90 0
89 76 -514 90 0
89 76 514 -90 0
-90 -77 91 0
-90 77 91 0
90 -77 -91 0
90 77 91 0
-91 -78 -92 0
-91 78 -92 0
91 -78 92 0
91 78 -92 0
-92 -79 -93 0
-92 79 93 0
92 -79 93 0
92 79 93 0
-93 -80 -527 94 0
-93 -80 527 -94 0
-93 80 -528 94 0
-93 80 528 -94 0
93 -80 -529 94 0
93 -80 529 -94 0
93 80 -530 94 0
93 80 530 -94 0
-94 -81 -531 95 0
-94 -81 531 -95 0
-94 81 -532 95 0
-94 81 532 -95 0
94 -81 -533 95 0
94 -81 533 -95 0
94 81 -534 95 0
94 81 534 -95 0
-95 -82 -96 0
-95 82 -96 0
95 -82 -96 0
95 82 96 0
-96 -83 -539 97 0
-96 -83 539 -97 0
-96 83 -540 97 0
-96 83 540 -97 0
96 -83 -541 97 0
96 -83 541 -97 0
96 83 -542 97 0
96 83 542 -97 0
-97 -84 -98 0
-97 84 -98 0
97 -84 98 0
97 84 98 0
-85 99 0
85 -99 0
-99 -86 100 0
-99 86 100 0
99 -86 100 0
99 86 -100 0
-100 -87 101 0
-100 87 101 0
100 -87 -101 0
100 87 101 0
-101 -88 -557 102 0
-101 -88 557 -102 0
-101 88 -558 102 0
-101 88 558 -102 0
101 -88 -559 102 0
101 -88 559 -102 0
101 88 -560 102 0
101 88 560 -102 0
-102 -89 -103 0
-102 89 -103 0
102 -89 103 0
102 89 103 0
-103 -90 -104 0
-103 90 104 0
103 -90 104 0
103 90 104 0
-104 -91 105 0
-104 91 105 0
104 -91 105 0
104 91 -105 0
-105 -92 106 0
-105 92 106 0
105 -92 106 0
105 92 -106 0
-106 -93 -107 0
-106 93 107 0
106 -93 107 0
106 93 -107 0
-107 -94 108 0
-107 94 -108 0
107 -94 108 0
107 94 108 0
-108 -95 109 0
-108 95 109 0
108 -95 -109 0
108 95 109 0
-109 -96 -110 0
-109 96 110 0
109 -96 110 0
109 96 -110 0
-110 -97 111 0
-110 97 111 0
110 -97 111 0
110 97 -111 0
-111 -98 -112 0
-111 98 112 0
111 -98 112 0
111 98 112 0
-99 113 0
99 -113 0
-113 -100 -114 0
-113 100 -114 0
113 -100 114 0
113 100 114 0
-114 -101 115 0
-114 101 -115 0
114 -101 115 0
114 101 115 0
-115 -102 -116 0
-115 102 -116 0
115 -102 116 0
115 102 -116 0
-116 -103 -615 117 0
-116 -103 615 -117 0
-116 103 -616 117 0
-116 103 616 -117 0
116 -103 -617 117 0
116 -103 617 -117 0
116 103 -618 117 0
116 103 618 -117 0
-117 -104 -118 0
-117 104 -118 0
117 -104 -118 0
117 104 118 0
-118 -105 119 0
-118 105 -119 0
118 -105 119 0
118 105 -119 0
-119 -106 -627 120 0
-119 -106 627 -120 0
-119 106 -628 120 0
-119 106 628 -120 0
119 -106 -629 120 0
119 -106 629 -120 0
119 106 -630 120 0
119 106 630 -120 0
-120 -107 -121 0
-120 107 -121 0
120 -107 121 0
120 107 121 0
-121 -108 122 0
-121 108 122 0
121 -108 122 0
121 108 -122 0
-122 -109 123 0
-122 109 -123 0
122 -109 -123 0
122 109 -123 0
-123 -110 -124 0
-123 110 -124 0
123 -110 124 0
123 110 -124 0
-124 -111 125 0
-124 111 -125 0
124 -111 -125 0
124 111 125 0
-125 -112 126 0
-125 112 -126 0
125 -112 -126 0
125 112 126 0
-113 -127 0
113 127 0
-127 -114 -657 128 0
-127 -114 657 -128 0
-127 114 -658 128 0
-127 114 658 -128 0
127 -114 -659 128 0
127 -114 659 -128 0
127 114 -660 128 0
127 114 660 -128 0
-128 -115 -129 0
-128 115 129 0
128 -115 129 0
128 115 -129 0
-129 -116 130 0
-129 116 130 0
129 -116 130 0
129 116 -130 0
-130 -117 -131 0
-130 117 -131 0
130 -117 131 0
130 117 -131 0
-131 -118 -132 0
-131 118 132 0
131 -118 -132 0
131 118 -132 0
-132 -119 -133 0
-132 119 133 0
132 -119 -133 0
132 119 -133 0
-133 -120 -681 134 0
-133 -120 681 -134 0
-133 120 -682 134 0
-133 120 682 -134 0
133 -120 -683 134 0
133 -120 683 -134 0
133 120 -684 134 0
133 120 684 -134 0
-134 -121 -135 0
-134 121 -135 0
134 -121 -135 0
134 121 135 0
-135 -122 136 0
-135 122 -136 0
135 -122 -136 0
135 122 136 0
-136 -123 -137 0
-136 123 -137 0
136 -123 137 0
136 123 137 0
-137 -124 -697 138 0
-137 -124 697 -138 0
-137 124 -698 138 0
-137 124 698 -138 0
137 -124 -699 138 0
137 -124 699 -138 0
137 124 -700 138 0
137 124 700 -138 0
-138 -125 -139 0
-138 125 -139 0
138 -125 139 0
138 125 -139 0
-139 -126 140 0
-139 126 -140 0
139 -126 140 0
139 126 -140 0
-127 141 0
127 -141 0
-141 -128 -142 0
-141 128 -142 0
141 -128 -142 0
141 128 142 0
-142 -129 143 0
-142 129 143 0
142 -129 -143 0
142 129 143 0
-143 -130 144 0
-143 130 -144 0
143 -130 -144 0
143 130 -144 0
-144 -131 145 0
-144 131 145 0
144 -131 145 0
144 131 -145 0
-145 -132 146 0
-145 132 -146 0
145 -132 146 0
145 132 146 0
-146 -133 -731 147 0
-146 -133 731 -147 0
-146 133 -732 147 0
-146 133 732 -147 0
146 -133 -733 147 0
146 -133 733 -147 0
146 133 -734 147 0
146 133 734 -147 0
-147 -134 148 0
-147 134 -148 0
147 -134 -148 0
147 134 -148 0
-148 -135 149 0
-148 135 -149 0
148 -135 -149 0
148 135 -149 0
-149 -136 150 0
-149 136 -150 0
149 -136 -150 0
149 136 150 0
-150 -137 151 0
-150 137 -151 0
150 -137 -151 0
150 137 -151 0
-151 -138 152 0
-151 138 -152 0
151 -138 -152 0
151 138 -152 0
-152 -139 153 0
-152 139 -153 0
152 -139 153 0
152 139 -153 0
-153 -140 154 0
-153 140 -154 0
153 -140 -154 0
153 140 154 0
-141 -763 155 0
-141 763 -155 0
141 -764 155 0
141 764 -155 0
-155 -142 -156 0
-155 142 -156 0
155 -142 156 0
155 142 156 0
-156 -143 -769 157 0
-156 -143 769 -157 0
-156 143 -770 157 0
-156 143 770 -157 0
156 -143 -771 157 0
156 -143 771 -157 0
156 143 -772 157 0
156 143 772 -157 0
-157 -144 -773 158 0
-157 -144 773 -158 0
-157 144 -774 158 0
-157 144 774 -158 0
157 -144 -775 158 0
157 -144 775 -158 0
157 144 -776 158 0
157 144 776 -158 0
-158 -145 159 0
-158 145 -159 0
158 -145 159 0
158 145 -159 0
-159 -146 -160 0
-159 146 160 0
159 -146 -160 0
159 146 160 0
-160 -147 -161 0
-160 147 -161 0
160 -147 161 0
160 147 -161 0
-161 -148 -162 0
-161 148 -162 0
161 -148 -162 0
161 148 162 0
-162 -149 163 0
-162 149 -163 0
162 -149 163 0
162 149 163 0
-163 -150 -164 0
-163 150 164 0
163 -150 164 0
163 150 164 0
-164 -151 -165 0
-164 151 -165 0
164 -151 165 0
164 151 165 0
-165 -152 166 0
-165 152 166 0
165 -152 -166 0
165 152 166 0
-166 -153 167 0
-166 153 167 0
166 -153 -167 0
166 153 -167 0
-167 -154 -168 0
-167 154 -168 0
167 -154 168 0
167 154 168 0
-155 -169 0
155 169 0
-169 -156 -170 0
-169 156 170 0
169 -156 -170 0
169 156 170 0
-170 -157 171 0
-170 157 -171 0
170 -157 171 0
170 157 -171 0
-171 -158 -172 0
-171 158 172 0
171 -158 -172 0
171 158 172 0
-172 -159 -831 173 0
-172 -159 831 -173 0
-172 159 -832 173 0
-172 159 832 -173 0
172 -159 -833 173 0
172 -159 833 -173 0
172 159 -834 173 0
172 159 834 -173 0
-173 -160 -174 0
-173 160 174 0
173 -160 -174 0
173 160 174 0
-174 -161 175 0
-174 161 -175 0
174 -161 -175 0
174 161 -175 0
-175 -162 176 0
-175 162 -176 0
175 -162 -176 0
175 162 176 0
-176 -163 -177 0
-176 163 -177 0
176 -163 -177 0
176 163 177 0
-177 -164 178 0
-177 164 178 0
177 -164 -178 0
177 164 -178 0
-178 -165 179 0
-178 165 -179 0
178 -165 179 0
178 165 -179 0
-179 -166 180 0
-179 166 180 0
179 -166 180 0
179 166 -180 0
-180 -167 181 0
-180 167 181 0
180 -167 181 0
180 167 -181 0
-181 -168 -182 0
-181 168 -182 0
181 -168 182 0
181 168 182 0
-169 -871 183 0
-169 871 -183 0
169 -872 183 0
169 872 -183 0
-183 -170 184 0
-183 170 184 0
183 -170 -184 0
183 170 -184 0
-184 -171 -877 185 0
-184 -171 877 -185 0
-184 171 -878 185 0
-184 171 878 -185 0
184 -171 -879 185 0
184 -171 879 -185 0
184 171 -880 185 0
184 171 880 -185 0
-185 -172 186 0
-185 172 -186 0
185 -172 -186 0
185 172 -186 0
-186 -173 -885 187 0
-186 -173 885 -187 0
-186 173 -886 187 0
-186 173 886 -187 0
186 -173 -887 187 0
186 -173 887 -187 0
186 173 -888 187 0
186 173 888 -187 0
-187 -174 -188 0
-187 174 -188 0
187 -174 188 0
187 174 188 0
-188 -175 -189 0
-188 175 -189 0
188 -175 189 0
188 175 -189 0
-189 -176 190 0
-189 176 190 0
189 -176 190 0
189 176 -190 0
-190 -177 -191 0
-190 177 191 0
190 -177 191 0
190 177 191 0
-191 -178 192 0
-191 178 192 0
191 -178 -192 0
191 178 192 0
-192 -179 193 0
-192 179 -193 0
192 -179 -193 0
192 179 -193 0
-193 -180 -194 0
-193 180 194 0
193 -180 -194 0
193 180 194 0
-194 -181 -195 0
-194 181 195 0
194 -181 -195 0
194 181 195 0
-195 -182 196 0
-195 182 -196 0
195 -182 196 0
195 182 -196 0
196 0
