data/benchmarks/bayes/90-14-9-q.gr
p tw 924 801
67 68
177 190
99 100
26 39
136 149
187 887
59 73
159 160
63 461
8 9
118 131
40 41
77 90
100 101
132 133
146 733
92 106
192 193
41 42
57 386
151 164
73 74
110 123
94 533
33 47
133 134
83 542
125 139
51 64
74 75
95 534
106 107
143 156
66 80
166 167
34 295
15 16
47 48
76 511
158 172
7 21
107 108
99 113
106 628
48 49
80 81
114 659
40 54
124 700
101 558
132 146
144 776
81 82
94 528
25 38
13 222
73 87
173 174
120 684
22 23
33 298
183 871
165 179
14 28
114 115
77 462
106 120
55 56
103 618
47 61
53 370
147 148
187 886
139 153
80 94
172 833
172 186
57 385
94 532
72 495
83 541
173 834
181 182
173 187
84 97
176 189
158 171
97 542
117 130
90 512
106 627
21 22
147 161
58 71
186 885
113 114
150 163
124 699
128 660
132 145
54 55
144 775
91 104
171 878
94 527
146 147
32 45
120 683
65 469
165 178
87 88
124 137
179 180
77 461
106 119
65 78
88 89
103 617
120 121
157 170
53 369
6 19
180 181
29 30
139 152
61 62
133 734
98 111
21 35
121 122
153 154
80 93
2 3
113 127
39 52
172 832
62 63
172 185
94 95
131 144
54 68
13 27
3 4
35 36
76 464
72 85
146 160
105 119
95 96
127 128
164 177
87 101
52 372
187 188
46 60
36 37
68 69
179 193
28 42
97 541
128 129
160 161
90 511
120 134
79 93
127 658
69 70
101 102
137 699
61 75
120 628
161 162
20 34
10 11
153 167
128 659
2 16
102 103
171 877
143 769
138 700
94 108
72 498
194 195
158 776
53 67
93 530
43 44
35 49
135 136
134 684
127 141
38 51
89 514
86 100
185 878
76 77
68 82
27 41
160 174
117 618
133 733
186 888
101 115
12 25
60 74
81 533
1 15
13 26
147 734
76 463
86 495
105 118
65 472
52 371
9 10
46 59
138 151
88 559
19 32
79 92
127 657
134 135
137 698
120 627
171 184
20 33
75 76
112 125
85 498
20 298
16 17
158 775
53 66
93 529
173 885
108 109
145 158
134 683
96 540
79 469
49 50
89 513
86 99
116 616
185 877
109 110
159 834
178 191
27 40
50 51
117 617
82 83
119 132
42 56
142 143
23 24
134 148
60 73
81 532
83 84
115 116
152 165
14 222
75 89
143 772
175 176
34 48
24 25
147 733
78 472
93 106
16 30
157 774
116 117
108 122
67 81
133 682
57 58
167 168
89 90
126 139
49 63
159 173
149 150
88 558
8 22
30 31
100 114
90 91
82 96
137 697
41 55
31 32
141 142
119 630
102 559
23 37
133 147
123 124
85 497
115 129
74 88
64 65
174 175
157 769
56 70
86 498
156 157
166 180
15 29
5 6
96 539
59 72
107 121
97 98
116 615
159 833
167 181
89 103
189 190
48 62
148 149
146 732
80 530
92 105
30 44
140 154
33 46
81 95
184 880
141 155
125 138
156 772
22 36
122 123
95 533
34 47
147 732
66 79
78 471
114 128
157 773
39 372
174 188
7 20
55 69
67 80
133 681
63 464
159 172
8 21
114 658
40 53
63 64
100 113
101 557
148 162
4 5
41 54
13 221
73 86
119 629
102 558
33 297
133 146
181 195
85 496
14 27
37 38
74 87
122 136
34 298
166 179
76 514
47 60
187 885
107 120
130 131
159 832
167 180
11 12
48 61
146 731
80 529
140 153
163 164
94 531
44 45
169 872
81 94
83 540
173 833
156 771
173 186
22 35
95 532
155 156
78 470
114 127
137 138
39 371
174 187
96 97
18 19
55 68
88 102
188 189
147 160
180 194
170 171
29 43
129 130
114 657
121 135
124 698
111 112
148 161
144 774
62 76
162 163
119 628
120 682
154 168
33 296
144 145
3 17
181 194
103 104
95 109
85 86
195 196
122 135
155 169
177 178
36 50
76 513
103 616
136 137
96 110
128 142
118 119
106 630
77 78
21 34
69 83
169 170
141 764
129 143
172 831
161 175
151 152
101 560
10 24
110 111
54 67
94 530
102 116
83 539
173 832
51 52
162 176
146 159
156 770
43 57
143 144
103 117
87 100
135 149
77 464
179 192
28 41
97 540
76 90
88 101
53 372
136 150
120 133
168 182
180 193
77 91
61 74
121 134
124 697
169 183
153 166
128 658
2 15
144 773
25 26
138 699
62 75
110 124
94 534
72 497
94 107
120 681
154 167
3 16
51 65
35 48
95 108
17 18
143 157
9 23
36 49
103 615
68 81
128 141
90 514
160 173
106 629
133 732
186 887
69 82
101 114
141 763
161 174
10 23
171 880
94 529
102 115
76 462
183 872
65 471
176 177
52 370
135 148
77 463
17 31
117 118
97 539
76 89
109 123
53 371
58 59
168 181
191 192
50 64
150 151
142 156
172 834
91 92
128 657
83 97
138 698
20 297
183 184
32 33
72 496
158 774
93 528
175 189
165 166
24 38
124 125
84 98
134 682
116 130
65 66
89 512
176 190
9 22
57 71
157 158
6 7
117 131
149 163
139 140
90 513
117 616
133 731
127 660
58 72
42 55
186 886
90 104
190 191
120 630
39 40
150 164
134 147
182 196
81 531
172 173
31 45
131 132
155 764
91 105
75 88
14 221
123 137
143 771
171 879
72 73
76 461
32 46
16 29
64 78
65 470
164 165
173 888
124 138
108 121
156 170
52 369
79 472
5 19
185 880
17 30
65 79
49 62
97 111
88 557
109 122
157 171
6 20
50 63
98 112
82 95
142 155
39 53
23 36
83 96
138 697
20 296
115 128
131 145
158 773
93 527
175 188
24 37
72 86
56 69
86 497
134 681
116 129
38 39
164 178
89 511
89 102
149 162
71 72
117 615
30 43
63 77
127 659
90 103
12 13
137 700
120 629
4 18
182 195
104 105
184 879
31 44
155 763
13 14
123 136
143 770
45 46
147 731
105 106
37 51
157 772
64 77
173 887
46 47
156 169
78 79
79 471
5 18
96 542
38 52
185 879
63 463
70 84
116 618
138 139
97 110
19 20
130 144
43 386
11 25
79 80
71 85
171 172
20 21
52 53
163 177
12 26
44 58
102 557
81 534
85 495
104 118
20 295
53 54
45 59
34 297
145 146
157 776
86 496
26 27
137 151
86 87
18 32
133 684
78 92
159 831
178 179
27 28
138 152
88 560
170 184
19 33
119 120
80 528
63 76
111 125
60 61
169 871
171 185
4 17
52 66
184 878
152 153
1 2
112 126
144 158
95 531
93 94
78 469
37 50
85 99
39 370
157 771
185 186
173 886
145 159
177 191
26 40
79 470
96 541
187 888
63 462
70 83
116 617
118 132
186 187
130 143
178 192
43 385
11 24
146 734
119 133
151 165
163 176
119 627
44 57
33 295
104 117
152 166
45 58
34 296
93 107
193 194
157 775
76 512
137 150
59 60
96 109
18 31
133 683
78 91
126 140
114 660
170 183
92 93
129 142
80 527
101 559
184 185
111 124
33 34
25 39
173 831
125 126
52 65
162 175
184 877
102 560
156 769
34 35
144 157
66 67
103 116
158 159
157 770
39 369
7 8
